Instance name: /mnt/c/Users/ORG/CLionProjects/uMV-FSTSP/Murray_Chu_2015_test_data/FSTSP/FSTSP_10_customer_problems/20140810T123443v12

drone speed: 0.6 miles/minute
uav non-eligible customer: 4 8 
Printing number of nodes: 11

Set parameter Threads to value 20
Gurobi Optimizer version 11.0.0 build v11.0.0rc2 (linux64 - "Ubuntu 22.04.3 LTS")

CPU model: 13th Gen Intel(R) Core(TM) i5-13500, instruction set [SSE2|AVX|AVX2]
Thread count: 10 physical cores, 20 logical processors, using up to 20 threads

Optimize a model with 6346 rows, 1825 columns and 197322 nonzeros
Model fingerprint: 0x2dc194af
Variable types: 11 continuous, 1814 integer (1814 binary)
Coefficient statistics:
  Matrix range     [5e-01, 3e+01]
  Objective range  [1e+00, 3e+01]
  Bounds range     [1e+00, 1e+00]
  RHS range        [1e+00, 8e+00]
Found heuristic solution: objective 146.3791851
Presolve removed 991 rows and 941 columns
Presolve time: 0.35s
Presolved: 5355 rows, 884 columns, 151759 nonzeros
Variable types: 8 continuous, 876 integer (876 binary)

Root relaxation: objective 6.798477e+01, 1618 iterations, 0.09 seconds (0.26 work units)

    Nodes    |    Current Node    |     Objective Bounds      |     Work
 Expl Unexpl |  Obj  Depth IntInf | Incumbent    BestBd   Gap | It/Node Time

     0     0   67.98477    0  108  146.37919   67.98477  53.6%     -    0s
H    0     0                     120.1034278   67.98477  43.4%     -    0s
H    0     0                     102.6753464   67.98477  33.8%     -    0s
H    0     0                      99.6493095   67.98477  31.8%     -    0s
     0     0   69.19504    0    4   99.64931   69.19504  30.6%     -    0s
H    0     0                      69.1950353   69.19504  0.00%     -    0s
     0     0   69.19504    0    4   69.19504   69.19504  0.00%     -    0s

Cutting planes:
  Gomory: 1
  Clique: 9
  MIR: 3
  StrongCG: 2
  Zero half: 5
  RLT: 14

Explored 1 nodes (1894 simplex iterations) in 0.65 seconds (1.41 work units)
Thread count was 20 (of 20 available processors)

Solution count 5: 69.195 99.6493 102.675 ... 146.379

Optimal solution found (tolerance 1.00e-04)
Best objective 6.919503533548e+01, best bound 6.919503533548e+01, gap 0.0000%
